
Gurobi 11.0.0 (mac64[arm], gurobi_cl) logging started Fri Mar 22 14:41:01 2024

Set parameter Username
Set parameter LogFile to value "gurobi.log"
Using license file /Users/bmiftari/gurobi.lic
Academic license - for non-commercial use only - expires 2024-11-27
